12
XYZ file generated by Avogadro.
C     -2.9429660244    2.4015669394    0.0353265144
C     -4.1291278844    1.7208138529    0.7845126704
H     -3.0849979367    3.4441501840   -0.2758190288
Cl    -1.3906564189    2.3014505263    0.8886739604
C     -3.1442577299    1.3057838247   -1.0557397686
C     -3.6624007175    0.3971286679    0.1023566198
H     -4.0851151741    1.7398142104    1.8779522335
H     -5.1204168582    2.0674885284    0.4723452873
H     -3.8981971803    1.5524380265   -1.8114001720
H     -2.2404772293    0.9624730201   -1.5687960119
H     -2.8827843535   -0.1507383280    0.6431531553
H     -4.4554125573   -0.3087333215   -0.1628568702
