12
XYZ file generated by Avogadro.
C     -4.1859616314    2.8636911022   -1.2857189069
C     -4.5450228805    2.0199323045   -0.0382546256
H     -5.0774140549    3.1822429159   -1.8418722390
Cl    -3.1505971980    4.3004411429   -1.0813080122
C     -3.5624395008    1.5723716683   -1.8694402319
C     -4.5420736840    0.7888817802   -0.9696942898
H     -3.7621339794    1.9862882616    0.7286945235
H     -5.5001792477    2.2556762147    0.4376610321
H     -3.6846926015    1.4287115069   -2.9459349890
H     -2.5098902115    1.4158985213   -1.6050440668
H     -4.1547023932   -0.1360857271   -0.5357600296
H     -5.5111445651    0.5869424167   -1.4402905787
